Al12 O18                                
    1.000000000000000     
     4.7866791590927997    0.0000000000000000    0.0000000000000003
    -2.3933395795464016    4.1453857515398980    0.0000000000000003
     0.0000000000000000    0.0000000000000000   39.1798114717577519
   Al   O 
    12    18
Direct
  0.3333343022451644  0.6666666660175299  0.6097794106008115
  0.6666671150210172  0.3333333090794532  0.5611526857260709
  0.0000001879994427 -0.0000000118396785  0.5496504162525140
  0.3333333813429581  0.6666666583690226  0.5066373786545598
 -0.0000007178092803  0.0000006878616439  0.3834014391946062
  0.3333411812122772  0.6666667050810177  0.3577279916366048
  0.6666587987517678  0.3333332490838347  0.6422720084794108
  0.0000007202827358 -0.0000006867390262  0.6165985609534360
  0.6666666194409003  0.3333333416916857  0.4933626218339180
 -0.0000001875820189  0.0000000116720406  0.4503495834492280
  0.3333328855603775  0.6666666914869342  0.4388473138052238
  0.6666656976823206  0.3333333346368283  0.3902205894353906
  0.3593376142930507  0.3320287763545880  0.5277794820980269
  0.6887150430286795  0.6883029686506414  0.5838162973005117
  0.9726913901626469  0.6406625423135923  0.5277794778799686
  0.6679714620829611  0.0273087426959367  0.5277794817936432
 -0.0004116873299116  0.3112855985419903  0.5838162025340177
  0.3116977614181612  0.0004112612676845  0.5838162992266811
  0.0256920235804770  0.6826135274375119  0.6391776219907064
  0.3430785384077363  0.0256917008820968  0.3608223495854340
  0.6569214583334473  0.9743083255616251  0.6391776508067645
  0.3173989732600427  0.3430788568840908  0.6391778032777484
  0.6826010180396878  0.6569211377542861  0.3608221965420343
  0.9743080029462005  0.3173864980666423  0.3608223774366177
  0.6883022357319584 -0.0004112638000667  0.4161837012350559
  0.0273086112818137  0.3593374579023790  0.4722205220304816
  0.3112849575230290  0.3116970303796082  0.4161837026468642
  0.0004116889234376  0.6887144020916839  0.4161837977086328
  0.3320285380417792  0.9726912564941009  0.4722205180924099
  0.6406623861271405  0.6679712241203235  0.4722205177926281
 
  0.00000000E+00  0.00000000E+00  0.00000000E+00
  0.00000000E+00  0.00000000E+00  0.00000000E+00
  0.00000000E+00  0.00000000E+00  0.00000000E+00
  0.00000000E+00  0.00000000E+00  0.00000000E+00
  0.00000000E+00  0.00000000E+00  0.00000000E+00
  0.00000000E+00  0.00000000E+00  0.00000000E+00
  0.00000000E+00  0.00000000E+00  0.00000000E+00
  0.00000000E+00  0.00000000E+00  0.00000000E+00
  0.00000000E+00  0.00000000E+00  0.00000000E+00
  0.00000000E+00  0.00000000E+00  0.00000000E+00
  0.00000000E+00  0.00000000E+00  0.00000000E+00
  0.00000000E+00  0.00000000E+00  0.00000000E+00
  0.00000000E+00  0.00000000E+00  0.00000000E+00
  0.00000000E+00  0.00000000E+00  0.00000000E+00
  0.00000000E+00  0.00000000E+00  0.00000000E+00
  0.00000000E+00  0.00000000E+00  0.00000000E+00
  0.00000000E+00  0.00000000E+00  0.00000000E+00
  0.00000000E+00  0.00000000E+00  0.00000000E+00
  0.00000000E+00  0.00000000E+00  0.00000000E+00
  0.00000000E+00  0.00000000E+00  0.00000000E+00
  0.00000000E+00  0.00000000E+00  0.00000000E+00
  0.00000000E+00  0.00000000E+00  0.00000000E+00
  0.00000000E+00  0.00000000E+00  0.00000000E+00
  0.00000000E+00  0.00000000E+00  0.00000000E+00
  0.00000000E+00  0.00000000E+00  0.00000000E+00
  0.00000000E+00  0.00000000E+00  0.00000000E+00
  0.00000000E+00  0.00000000E+00  0.00000000E+00
  0.00000000E+00  0.00000000E+00  0.00000000E+00
  0.00000000E+00  0.00000000E+00  0.00000000E+00
  0.00000000E+00  0.00000000E+00  0.00000000E+00
