Generated by VASPKIT code               
   1.00000000000000     
     3.1614715503999999    0.0000000000000000    0.0000000000000000
     1.5807357752000000    2.7379144792000001    0.0000000000000000
     0.0000000000000000    0.0000000000000000   23.1264974065000004
   Mo   S 
     1     2
Direct
  0.6666674426364875  0.6666662842789185  0.5000000024278990
  0.3333332824576843  0.3333333168471313  0.4322033974461785
  0.3333332748619955  0.3333333988757156  0.5677966001237625
 
  0.00000000E+00  0.00000000E+00  0.00000000E+00
  0.00000000E+00  0.00000000E+00  0.00000000E+00
  0.00000000E+00  0.00000000E+00  0.00000000E+00
