Mo2 S4                                  
    1.000000000000000     
     3.1620949932911997   -0.0000000000000003   -0.0000000000000000
     1.5810474966455985    2.7384543964928425   -0.0000000000000000
     0.0000000000000000    0.0000000000000000   12.3230106467063294
   Mo   S 
     2     4
Direct
  0.3333340000000007  0.3333330000000032  0.7500000000000000
  0.6666659999999993  0.6666669999999968  0.2500000000000000
  0.3333340000000007  0.3333330000000032  0.1231112405970477
  0.6666659999999993  0.6666669999999968  0.8768847594029555
  0.3333340000000007  0.3333330000000032  0.3768887594029523
  0.6666659999999993  0.6666669999999968  0.6231152405970445
 
  0.00000000E+00  0.00000000E+00  0.00000000E+00
  0.00000000E+00  0.00000000E+00  0.00000000E+00
  0.00000000E+00  0.00000000E+00  0.00000000E+00
  0.00000000E+00  0.00000000E+00  0.00000000E+00
  0.00000000E+00  0.00000000E+00  0.00000000E+00
  0.00000000E+00  0.00000000E+00  0.00000000E+00
